out/bwp_8_9_1_lp.out
7
4 -0    7 2
4 3    7 5
-0 4    0 5
1 4    1 5
2 4    2 5
3 4    3 5
1 6    2 6
3 6    7 6
-0 -0    3 3
